title "Water Cluster"

start water_cluster

charge 0

geometry  noautosym
  O    0.000000    0.000000    0.000000
  H    0.757000    0.586000    0.000000
  H   -0.757000    0.586000    0.000000
  O    2.100000    1.500000    0.000000
  H    2.457000    2.086000    0.000000
  H    1.643000    2.086000    0.000000
end

BASIS "ao basis" CARTESIAN PRINT
#BASIS SET: (4s) -> [2s]
H    S
      0.1873113696E+02       0.3349460434E-01
      0.2825394365E+01       0.2347269535E+00
      0.6401216923E+00       0.8137573261E+00
H    S
      0.1612777588E+00       1.0000000
#BASIS SET: (11s,5p,1d) -> [4s,3p,1d]
O    S
      0.5484671660E+04       0.1831074430E-02
      0.8252349460E+03       0.1395017220E-01
      0.1880469580E+03       0.6844507810E-01
      0.5296450000E+02       0.2327143360E+00
      0.1689757040E+02       0.4701928980E+00
      0.5799635340E+01       0.3585208530E+00
O    SP
      0.1553961625E+02      -0.1107775495E+00       0.7087426823E-01
      0.3599933586E+01      -0.1480262627E+00       0.3397528391E+00
      0.1013761750E+01       0.1130767015E+01       0.7271585773E+00
O    SP
      0.2700058226E+00       0.1000000000E+01       0.1000000000E+01
O    SP
      0.8450000000E-01       0.1000000000E+01       0.1000000000E+01
O    D
      0.8000000000E+00       1.0000000
END

dft
  mult 1
  xc b3lyp
  maxiter 100
end

task dft optimize
